seed= 2052018 ;
N= 14 ;
M= 2 ;
F= 2 ;
K= 3 ;
T= 48 ;

p=[ 2 2 2 2 2 2 2 10 10 10 10 10 10 10 ];
r=[ 0 13 13 12 5 12 12 3 5 13 2 11 10 5 ];
d=[ 13 27 12 5 1 11 11 0 17 19 9 1 20 9 ];
s=[ 1 1 1 1 1 1 1 1 1 1 1 1 1 1 ];
w=[ 3 1 5 3 2 3 4 4 1 5 2 4 3 1 ];
f=[ 1 1 1 1 1 1 1 2 2 2 2 2 2 2 ];

e1=[ 10 10 10 10 10 10 10 10 10 10 10 10 10 10 10 10 10 10 10 10 10 10 10 10 8 8 8 8 8 8 8 8 8 8 8 8 8 8 8 8 8 8 8 8 8 8 8 8 ];
e2=[ 10 10 10 10 10 10 10 10 10 10 10 10 10 10 10 10 9 9 9 9 9 9 9 9 8 8 8 8 8 8 8 8 8 8 8 8 8 8 8 8 9 9 9 9 9 9 9 9 ];